p cnf 100 198
00001 00002 0
-00001 -00002 0
00001 00003 0
-00001 -00003 0
00001 00004 0
-00001 -00004 0
00001 00005 0
-00001 -00005 0
00001 00006 0
-00001 -00006 0
00001 00007 0
-00001 -00007 0
00001 00008 0
-00001 -00008 0
00001 00009 0
-00001 -00009 0
00001 00010 0
-00001 -00010 0
00001 00011 0
-00001 -00011 0
00001 00012 0
-00001 -00012 0
00001 00013 0
-00001 -00013 0
00001 00014 0
-00001 -00014 0
00001 00015 0
-00001 -00015 0
00001 00016 0
-00001 -00016 0
00001 00017 0
-00001 -00017 0
00001 00018 0
-00001 -00018 0
00001 00019 0
-00001 -00019 0
00001 00020 0
-00001 -00020 0
00001 00021 0
-00001 -00021 0
00001 00022 0
-00001 -00022 0
00001 00023 0
-00001 -00023 0
00001 00024 0
-00001 -00024 0
00001 00025 0
-00001 -00025 0
00001 00026 0
-00001 -00026 0
00001 00027 0
-00001 -00027 0
00001 00028 0
-00001 -00028 0
00001 00029 0
-00001 -00029 0
00001 00030 0
-00001 -00030 0
00001 00031 0
-00001 -00031 0
00001 00032 0
-00001 -00032 0
00001 00033 0
-00001 -00033 0
00001 00034 0
-00001 -00034 0
00001 00035 0
-00001 -00035 0
00001 00036 0
-00001 -00036 0
00001 00037 0
-00001 -00037 0
00001 00038 0
-00001 -00038 0
00001 00039 0
-00001 -00039 0
00001 00040 0
-00001 -00040 0
00001 00041 0
-00001 -00041 0
00001 00042 0
-00001 -00042 0
00001 00043 0
-00001 -00043 0
00001 00044 0
-00001 -00044 0
00001 00045 0
-00001 -00045 0
00001 00046 0
-00001 -00046 0
00001 00047 0
-00001 -00047 0
00001 00048 0
-00001 -00048 0
00001 00049 0
-00001 -00049 0
00001 00050 0
-00001 -00050 0
00001 00051 0
-00001 -00051 0
00001 00052 0
-00001 -00052 0
00001 00053 0
-00001 -00053 0
00001 00054 0
-00001 -00054 0
00001 00055 0
-00001 -00055 0
00001 00056 0
-00001 -00056 0
00001 00057 0
-00001 -00057 0
00001 00058 0
-00001 -00058 0
00001 00059 0
-00001 -00059 0
00001 00060 0
-00001 -00060 0
00001 00061 0
-00001 -00061 0
00001 00062 0
-00001 -00062 0
00001 00063 0
-00001 -00063 0
00001 00064 0
-00001 -00064 0
00001 00065 0
-00001 -00065 0
00001 00066 0
-00001 -00066 0
00001 00067 0
-00001 -00067 0
00001 00068 0
-00001 -00068 0
00001 00069 0
-00001 -00069 0
00001 00070 0
-00001 -00070 0
00001 00071 0
-00001 -00071 0
00001 00072 0
-00001 -00072 0
00001 00073 0
-00001 -00073 0
00001 00074 0
-00001 -00074 0
00001 00075 0
-00001 -00075 0
00001 00076 0
-00001 -00076 0
00001 00077 0
-00001 -00077 0
00001 00078 0
-00001 -00078 0
00001 00079 0
-00001 -00079 0
00001 00080 0
-00001 -00080 0
00001 00081 0
-00001 -00081 0
00001 00082 0
-00001 -00082 0
00001 00083 0
-00001 -00083 0
00001 00084 0
-00001 -00084 0
00001 00085 0
-00001 -00085 0
00001 00086 0
-00001 -00086 0
00001 00087 0
-00001 -00087 0
00001 00088 0
-00001 -00088 0
00001 00089 0
-00001 -00089 0
00001 00090 0
-00001 -00090 0
00001 00091 0
-00001 -00091 0
00001 00092 0
-00001 -00092 0
00001 00093 0
-00001 -00093 0
00001 00094 0
-00001 -00094 0
00001 00095 0
-00001 -00095 0
00001 00096 0
-00001 -00096 0
00001 00097 0
-00001 -00097 0
00001 00098 0
-00001 -00098 0
00001 00099 0
-00001 -00099 0
00001 00100 0
-00001 -00100 0
